p cnf 7230 17
289 -7044 0
-4950 -6197 -7001 7047 0
-289 -5397 -7015 7043 0
4950 -7048 0
-289 -5050 -7013 7045 0
289 -7046 0
6197 -7048 0
5050 -7046 0
5397 -7044 0
-7047 7048 0
-7043 7044 0
-7045 7046 0
7001 -7048 0
7013 -7046 0
7015 -7044 0
-7041 7042 0
7041 -7042 0
